Gurobi 12.0.3:   lim:time = 14400

  mip:bestbound = 1

Set parameter LogToConsole to value 1

  tech:outlev = 1

Set parameter Cuts to value 3

  cut:cuts = 3

Set parameter Presolve to value 2

  pre:solve = 2

Set parameter MIPFocus to value 2

  mip:focus = 2

Set parameter Symmetry to value 2

  mip:symmetry = 2

Set parameter InfUnbdInfo to value 1

Gurobi Optimizer version 12.0.3 build v12.0.3rc0 (win64 - Windows 11.0 (26100.2))



CPU model: 12th Gen Intel(R) Core(TM) i7-12700, instruction set [SSE2|AVX|AVX2]

Thread count: 12 physical cores, 20 logical processors, using up to 20 threads



Non-default parameters:

TimeLimit  14400

MIPFocus  2

Symmetry  2

Cuts  3

InfUnbdInfo  1

Presolve  2



Optimize a model with 554 rows, 963 columns and 5751 nonzeros

Model fingerprint: 0x1b516f74

Model has 2 quadratic objective terms

Model has 8 quadratic constraints

Variable types: 37 continuous, 926 integer (0 binary)

Coefficient statistics:

  Matrix range     [1e+00, 1e+05]

  QMatrix range    [1e+00, 1e+00]

  QLMatrix range   [1e+00, 2e+01]

  Objective range  [7e+00, 1e+02]

  QObjective range [3e+00, 3e+00]

  Bounds range     [1e+00, 9e+01]

  RHS range        [1e+00, 1e+05]

  QRHS range       [2e+01, 1e+02]

Presolve removed 35 rows and 97 columns

Presolve time: 0.26s

Presolved: 1047 rows, 1390 columns, 8519 nonzeros

Variable types: 73 continuous, 1317 integer (1103 binary)

Root relaxation presolve removed 68 rows and 0 columns

Root relaxation presolved: 716 rows, 1177 columns, 9315 nonzeros





Root relaxation: objective 1.969361e+02, 75 iterations, 0.01 seconds (0.01 work units)



    Nodes    |    Current Node    |     Objective Bounds      |     Work

 Expl Unexpl |  Obj  Depth IntInf | Incumbent    BestBd   Gap | It/Node Time



     0     0  196.93610    0   34          -  196.93610      -     -    0s

H    0     0                     683.9100000  197.79568  71.1%     -    0s

H    0     0                     497.5400000  220.77800  55.6%     -    0s

H    0     0                     491.3200000  220.77800  55.1%     -    0s

H    0     0                     470.3300000  220.77800  53.1%     -    0s

H    0     0                     442.9000000  220.77800  50.2%     -    0s

     0     0  240.81000    0   72  442.90000  240.81000  45.6%     -    0s

     0     0  240.81000    0   54  442.90000  240.81000  45.6%     -    0s

     0     0  240.81000    0   59  442.90000  240.81000  45.6%     -    0s

H    0     0                     420.3900000  241.58000  42.5%     -    0s

     0     0  242.17153    0   43  420.39000  242.17153  42.4%     -    0s

H    0     0                     408.5400000  242.17153  40.7%     -    0s

     0     0  242.17153    0   55  408.54000  242.17153  40.7%     -    0s

H    0     0                     407.6000000  242.17153  40.6%     -    0s

H    0     0                     400.2400000  242.17153  39.5%     -    0s

H    0     0                     397.0900000  242.17153  39.0%     -    0s

H    0     0                     377.5100000  242.17153  35.9%     -    0s

H    0     0                     375.9800000  242.17153  35.6%     -    0s

     0     0  242.18061    0   19  375.98000  242.18061  35.6%     -    1s

     0     0  242.18910    0   19  375.98000  242.18910  35.6%     -    1s

     0     0  242.26380    0   60  375.98000  242.26380  35.6%     -    1s

     0     0  242.26380    0   60  375.98000  242.26380  35.6%     -    1s

     0     2  242.33026    0   60  375.98000  242.33026  35.5%     -    1s

  2878  1405  284.11178   18  149  375.98000  259.54371  31.0%  18.2    5s

 24822  7564  333.11895   27   20  375.98000  289.06158  23.1%  17.9   10s

 42093 11292 infeasible   41       375.98000  298.44051  20.6%  17.8   15s

 54633 13565  311.32918   29   51  375.98000  303.29025  19.3%  17.9   20s

 68504 15723  350.35629   29   25  375.98000  308.31077  18.0%  17.9   25s

 84004 17438 infeasible   27       375.98000  313.28587  16.7%  17.9   30s

 99011 18509  324.08386   29   33  375.98000  317.90269  15.4%  18.0   35s

 113434 19304  322.61252   33   45  375.98000  321.42198  14.5%  18.1   40s

 120868 18335  358.12035   23   37  375.98000  323.41793  14.0%  18.2   48s

 133636 18331  368.42337   27   43  375.98000  325.46900  13.4%  18.4   50s

 146697 18169     cutoff   43       375.98000  328.74786  12.6%  18.4   55s

 158402 17678  349.85281   36   27  375.98000  331.86564  11.7%  18.5   60s

 171761 16679 infeasible   40       375.98000  335.56396  10.7%  18.5   65s

 186844 14964  343.28842   41   56  375.98000  339.86205  9.61%  18.5   70s

 199889 12874 infeasible   28       375.98000  344.09398  8.48%  18.5   75s

 212707  9947     cutoff   29       375.98000  348.63828  7.27%  18.5   80s

 225866  5188     cutoff   35       375.98000  355.29741  5.50%  18.5   85s



Cutting planes:

  Learned: 9

  Gomory: 14

  Lift-and-project: 20

  Cover: 109

  Implied bound: 161

  Projected implied bound: 6

  Clique: 122

  MIR: 29

  Mixing: 13

  StrongCG: 2

  Flow cover: 246

  GUB cover: 1

  Inf proof: 95

  Zero half: 398

  RLT: 64

  Relax-and-lift: 104



Explored 236734 nodes (4323058 simplex iterations) in 88.84 seconds (39.17 work units)

Thread count was 20 (of 20 available processors)



Solution count 10: 375.98 375.98 377.51 ... 470.33



Optimal solution found (tolerance 1.00e-04)

Best objective 3.759800000000e+02, best bound 3.759800000000e+02, gap 0.0000%



AMPL MP initial flat model has 963 variables (0 integer, 926 binary);

Objectives: 1 quadratic; 

Constraints:  554 linear; 8 quadratic;



AMPL MP final model has 963 variables (0 integer, 926 binary);

Objectives: 1 quadratic; 

Constraints:  554 linear; 8 quadratic;





-----RESULTS INFO-----
running_time:  88.922
TC.best_bound:  375.98
TC:  375.98
MIP Gap (%):  0
=== Vehicle Routes ===
Vehicle 1: 0 → 21
Vehicle 1: 1 → 14
Vehicle 1: 3 → 23
Vehicle 1: 14 → 3
Vehicle 1: 19 → 1
Vehicle 1: 21 → 19
Vehicle 2: 0 → 2
Vehicle 2: 2 → 15
Vehicle 2: 4 → 23
Vehicle 2: 15 → 4
Vehicle 3: 0 → 23
Vehicle 4: 0 → 23

=== Full Vehicle Routes ===
Vehicle 1: 0 → 21 → 19 → 1 → 14 → 3 → 0 (89<100)
Vehicle 2: 0 → 2 → 15 → 4 → 0 (91<100)
Vehicle 3: 0 → 0 (0<100)
Vehicle 4: 0 → 0 (0<100)
Arc used by MRT line: y variables:
MRT used: 15 → 16
Customer assigment to PL: u variables:
5 15
6 19
7 14
8 16
9 21
10 21
11 14
12 15
Node is served by regular vehicle: g variables:
1
2
3
4
19
21
14
15
Customer assigment to Home delivery: gm variables:
1
2
3
4
Node total demands: ntd variables:
1 6 1
2 21 1
3 21 1
4 18 1
9 0 0
10 0 0
11 0 0
12 0 0
19 12 1
20 0 0
21 16 1
22 0 0
13 0 0
14 34 1
15 52 1
16 0 0
17 0 0
18 0 0
Customer's demand delivered to PL: l variables:
5
6
7
8
9
10
11
12
Lockers load <= capacity:
12 <= 86
0 <= 91
16 <= 79
0 <= 80
0 <= 70
34 <= 88
28 <= 88
24 <= 85
0 <= 79
0 <= 87
